(set-info :Origin "This instance was generated by: BanditFuzz-- an RL fuzzer for SMT solvers" )
(set-info :Author "Joe Scott, Fed Mora, Vijay Ganesh" )
(set-info :Contact "Joe Scott, joseph.scott@uwaterloo.ca")
; solvers/z3.sh
; 	time => 0.17536568641662598
; 	answer => err
; solvers/bitwuzla.sh
; 	time => 0.1631309986114502
; 	answer => err
; solvers/cvc4.sh
; 	time => 0.24967741966247559
; 	answer => err
(set-logic QF_BV)
(declare-const bool_0 Bool)
(declare-const bool_1 Bool)
(declare-const bool_2 Bool)
(declare-const bool_3 Bool)
(declare-const bool_4 Bool)
(declare-const bv_0 (_ BitVec 8))
(declare-const bv_1 (_ BitVec 8))
(declare-const bv_2 (_ BitVec 8))
(declare-const bv_3 (_ BitVec 8))
(declare-const bv_4 (_ BitVec 8))
(assert (=> (or (and false bool_1) (bvsgt bv_1 bv_2)) (=> (not bool_0) (not false))))
(assert (bvugt (bvxor (bvsmod #x00000028  #x000000be ) (bvlshr bv_4 bv_4)) (bvashr (bvshl #x00000021  bv_2) (bvsmod #x000000e1  #x00000078 ))))
(assert (bvult (bvor (bvnor bv_2 #x00000073 ) (bvxnor #x00000028  bv_2)) (bvxnor (bvnor #x0000000c  bv_4) (bvlshr #x0000005c  bv_2))))
(assert (bvult (bvmul (bvxnor #x00000034  #x000000d5 ) (bvashr bv_0 #x000000a4 )) (bvsmod (bvand bv_0 bv_2) (bvurem #x000000c0  #x000000a5 ))))
(assert (bvule (bvmul (bvand bv_4 #x000000cc ) (bvmul #x00000008  bv_1)) (bvsmod (bvadd bv_1 #x000000fd ) (bvsub bv_0 bv_3))))
(check-sat)
(exit)
